(set-logic QF_SLIA)
(declare-fun var0 () String)
(assert (str.in_re var0 (re.++ ((_ re.loop 8 51) (re.++ (re.union (str.to_re "FR") (re.union (str.to_re "MX") (re.union (str.to_re "TR!") (str.to_re ",C")))) (re.++ (re.union (str.to_re "-mj") (re.union (str.to_re "L") (re.union (str.to_re "I_\u0022") (str.to_re "m")))) (re.++ (re.union (str.to_re "E") (re.union (str.to_re "VAe") (re.union (str.to_re ">") (str.to_re "|Y")))) (re.union (str.to_re "eG") (re.union (str.to_re "F*") (re.union (str.to_re "{>z") (str.to_re "}0")))))))) (re.++ ((_ re.loop 2 835) (re.++ (re.union (str.to_re "o'") (re.union (str.to_re "VA") (re.union (str.to_re "R{T") (str.to_re "4")))) (re.++ (re.union (str.to_re "`p") (re.union (str.to_re "De") (re.union (str.to_re "i") (str.to_re "Yk{")))) (re.++ (re.union (str.to_re "UF") (re.union (str.to_re "Z5") (re.union (str.to_re "yC") (str.to_re "|`")))) (re.union (str.to_re "q~") (re.union (str.to_re "r") (re.union (str.to_re "o") (str.to_re "J|Q")))))))) (re.++ ((_ re.loop 5 196) (re.++ (re.union (str.to_re "#3") (re.union (str.to_re "g(") (re.union (str.to_re "zJ:") (str.to_re "c=")))) (re.++ (re.union (str.to_re "h") (re.union (str.to_re "`") (re.union (str.to_re "fu}") (str.to_re "s")))) (re.++ (re.union (str.to_re "O") (re.union (str.to_re "\\\\D") (re.union (str.to_re "&") (str.to_re "&R")))) (re.union (str.to_re "t") (re.union (str.to_re "7") (re.union (str.to_re ">") (str.to_re "t@")))))))) ((_ re.loop 2 442) (re.++ (re.union (str.to_re "8KE") (re.union (str.to_re "pzU") (re.union (str.to_re ".j") (str.to_re "-T")))) (re.++ (re.union (str.to_re "CN") (re.union (str.to_re "TW@") (re.union (str.to_re "}y~") (str.to_re "2P")))) (re.++ (re.union (str.to_re "K$>") (re.union (str.to_re "b") (re.union (str.to_re "J$!") (str.to_re "Z")))) (re.union (str.to_re "We9") (re.union (str.to_re "fx") (re.union (str.to_re "L") (str.to_re "q$#")))))))))))))
(assert (not (str.in_re var0 (re.++ ((_ re.loop 8 539) (re.++ (re.union (str.to_re "9%") (re.union (str.to_re "#z") (re.union (str.to_re "j") (str.to_re "X")))) (re.++ (re.union (str.to_re "!") (re.union (str.to_re "8)[") (re.union (str.to_re "3Kf") (str.to_re "g")))) (re.++ (re.union (str.to_re "M{") (re.union (str.to_re "09") (re.union (str.to_re "xFa") (str.to_re "l~!")))) (re.union (str.to_re "_[") (re.union (str.to_re "J") (re.union (str.to_re "%") (str.to_re "lq}")))))))) (re.++ ((_ re.loop 16 488) (re.++ (re.union (str.to_re "wk") (re.union (str.to_re "Y%r") (re.union (str.to_re "k") (str.to_re "R\\9")))) (re.++ (re.union (str.to_re "Q{") (re.union (str.to_re "Gr") (re.union (str.to_re "/U") (str.to_re "_")))) (re.++ (re.union (str.to_re "*UJ") (re.union (str.to_re ",$r") (re.union (str.to_re "*q") (str.to_re "7")))) (re.union (str.to_re "=7") (re.union (str.to_re "G}") (re.union (str.to_re "2") (str.to_re "rR")))))))) (re.++ ((_ re.loop 5 819) (re.++ (re.union (str.to_re "1:Q") (re.union (str.to_re "*>=") (re.union (str.to_re "$") (str.to_re "n?\u0022")))) (re.++ (re.union (str.to_re "G") (re.union (str.to_re "H%") (re.union (str.to_re "H}:") (str.to_re "E")))) (re.++ (re.union (str.to_re "4") (re.union (str.to_re "gy") (re.union (str.to_re "@") (str.to_re "O>")))) (re.union (str.to_re "=J") (re.union (str.to_re "imc") (re.union (str.to_re "Z") (str.to_re "9*")))))))) ((_ re.loop 2 461) (re.++ (re.union (str.to_re "Omq") (re.union (str.to_re "%0") (re.union (str.to_re "Z") (str.to_re "O")))) (re.++ (re.union (str.to_re "%:/") (re.union (str.to_re "9F0") (re.union (str.to_re "9") (str.to_re ")}#")))) (re.++ (re.union (str.to_re "L<") (re.union (str.to_re "6") (re.union (str.to_re "[") (str.to_re "'d6")))) (re.union (str.to_re "7f") (re.union (str.to_re "I0V") (re.union (str.to_re ".") (str.to_re "x[!"))))))))))))))
(assert (not (str.in_re var0 (re.++ (re.* re.allchar) (re.++ (re.union (str.to_re "<") (re.union (str.to_re ">") (re.union (str.to_re "'") (re.union (str.to_re "\u0022") (str.to_re "&"))))) (re.* re.allchar))))))
(assert (<= 50 (str.len var0)))
(check-sat)
(get-model)
